
Gurobi 9.1.2 (win64, Java) logging started Fri Nov  5 22:27:50 2021

Academic license - for non-commercial use only - expires 2022-10-30
Gurobi Optimizer version 9.1.2 build v9.1.2rc0 (win64)
Thread count: 6 physical cores, 12 logical processors, using up to 12 threads
Optimize a model with 50 rows, 400 columns and 800 nonzeros
Model fingerprint: 0x0ed35476
Variable types: 0 continuous, 400 integer (400 binary)
Coefficient statistics:
  Matrix range     [1e+00, 1e+03]
  Objective range  [7e+01, 9e+02]
  Bounds range     [1e+00, 1e+00]
  RHS range        [1e+00, 2e+03]
Found heuristic solution: objective 11316.000000
Presolve removed 0 rows and 105 columns
Presolve time: 0.00s
Presolved: 50 rows, 295 columns, 590 nonzeros
Variable types: 0 continuous, 295 integer (295 binary)
Presolved: 50 rows, 295 columns, 590 nonzeros


Root relaxation: objective 1.313016e+04, 106 iterations, 0.00 seconds

    Nodes    |    Current Node    |     Objective Bounds      |     Work
 Expl Unexpl |  Obj  Depth IntInf | Incumbent    BestBd   Gap | It/Node Time

     0     0 13130.1591    0   10 11316.0000 13130.1591  16.0%     -    0s
H    0     0                    12537.000000 13130.1591  4.73%     -    0s
H    0     0                    12757.000000 13130.1591  2.93%     -    0s
     0     0 13129.2727    0   19 12757.0000 13129.2727  2.92%     -    0s
     0     0 13129.2727    0   15 12757.0000 13129.2727  2.92%     -    0s
     0     0 13129.2727    0   18 12757.0000 13129.2727  2.92%     -    0s
     0     0 13114.1663    0   13 12757.0000 13114.1663  2.80%     -    0s
     0     0 13114.1663    0   15 12757.0000 13114.1663  2.80%     -    0s
     0     0 13114.1663    0   26 12757.0000 13114.1663  2.80%     -    0s
     0     0 13114.1663    0   17 12757.0000 13114.1663  2.80%     -    0s
H    0     0                    12870.000000 13114.1663  1.90%     -    0s
     0     2 13114.1663    0   14 12870.0000 13114.1663  1.90%     -    0s
H   41    44                    12873.000000 13114.0264  1.87%   4.6    0s
H   41    44                    12919.000000 13114.0264  1.51%   4.6    0s
H   77    84                    12959.000000 13113.8847  1.20%   3.7    0s
H 1488  1118                    12991.000000 13091.0000  0.77%   5.6    0s
H20034  1274                    13091.000026 13091.0000  0.00%  10.6    3s

Cutting planes:
  Gomory: 11
  Cover: 136
  Clique: 4
  MIR: 22
  StrongCG: 22
  Flow cover: 2
  RLT: 1

Explored 20265 nodes (215294 simplex iterations) in 3.44 seconds
Thread count was 12 (of 12 available processors)

Solution count 9: 13091 12991 12959 ... 11316
No other solutions better than 13091

Optimal solution found (tolerance 1.00e-04)
Best objective 1.309100006769e+04, best bound 1.309100006769e+04, gap 0.0000%
